c SAT Generator for power-law distributed variable frequencies
c -g u -v 20 -c 91 -k 3 -p 2.750000 -b 3.200000 -f /home/schmidt/Devel/ni-kop-sat/data/ensemble/ruf20-91/ruf20-91-983 -u 1 -U 1 -s 1045268809
p cnf 20 91
-11 -18 19 0
7 8 -18 0
-6 -16 17 0
-6 -7 -17 0
-2 -5 12 0
-2 -8 -13 0
4 16 -19 0
-1 4 -6 0
1 8 20 0
7 17 18 0
1 5 -16 0
-10 -11 17 0
2 8 17 0
-2 8 -10 0
-11 -14 -18 0
-2 -5 7 0
3 -6 -20 0
7 -13 -20 0
-2 -15 -16 0
9 11 18 0
-8 -15 16 0
-2 -3 -20 0
3 -4 -9 0
-4 8 -17 0
9 15 -19 0
-5 -17 -19 0
8 -9 -17 0
1 -18 -19 0
2 -11 -15 0
2 14 -18 0
-8 -11 -18 0
-5 12 -17 0
-2 6 13 0
-1 6 -20 0
-6 9 15 0
-6 11 -13 0
3 7 11 0
2 -4 20 0
5 6 14 0
-8 -14 15 0
13 -14 -15 0
9 -12 14 0
3 18 20 0
3 -18 19 0
10 -16 -18 0
9 -13 18 0
13 19 20 0
4 -5 -10 0
5 8 -9 0
-7 -9 -16 0
6 9 10 0
15 -16 -19 0
-15 -19 -20 0
-16 -17 -19 0
-2 -9 14 0
-2 12 13 0
-3 -5 -6 0
1 -5 -6 0
-4 7 15 0
-8 -11 -19 0
8 12 14 0
-7 14 -16 0
-2 6 -13 0
-4 -5 -14 0
-1 8 10 0
3 -6 12 0
2 -9 17 0
8 12 -17 0
6 -9 17 0
-5 -8 -15 0
3 4 8 0
-1 2 18 0
3 -4 -11 0
-9 11 -19 0
-5 -16 17 0
-2 7 10 0
2 6 -17 0
5 -11 -15 0
3 4 -14 0
5 -7 14 0
-13 19 20 0
11 12 -16 0
-1 -7 -13 0
1 -7 -10 0
5 -9 -11 0
7 17 20 0
-2 4 15 0
7 12 -18 0
13 -17 -19 0
8 -14 15 0
-5 10 12 0
